% File represents an instance of a Composite Structure problem to be solved by a CP framework
% Created on 2025-03-26 10:41:42.513
T = 50;
n = 25;
m = 40;
edges = [(1, 2),
(6, 7),
(12, 11),
(17, 16),
(22, 21),
(2, 3),
(8, 7),
(12, 13),
(18, 17),
(23, 22),
(3, 4),
(8, 9),
(13, 14),
(18, 19),
(24, 23),
(5, 4),
(9, 10),
(15, 14),
(20, 19),
(24, 25),
(1, 6),
(6, 11),
(11, 16),
(16, 21),
(2, 7),
(12, 7),
(12, 17),
(17, 22),
(3, 8),
(8, 13),
(18, 13),
(18, 23),
(4, 9),
(9, 14),
(14, 19),
(24, 19),
(5, 10),
(15, 10),
(15, 20),
(20, 25)];
counts = [|8, 24, 8, 10,
|8, 22, 8, 6,
|8, 20, 8, 6,
|8, 20, 8, 4,
|8, 20, 8, 6,
|8, 20, 8, 8,
|8, 18, 8, 4,
|8, 20, 8, 4,
|8, 18, 8, 4,
|8, 18, 8, 2,
|8, 18, 8, 4,
|8, 18, 8, 6,
|8, 18, 8, 4,
|8, 18, 8, 2,
|8, 20, 8, 4,
|8, 12, 8, 4,
|8, 14, 8, 4,
|8, 18, 8, 6,
|8, 16, 8, 2,
|8, 16, 8, 4,
|6, 12, 6, 2,
|8, 12, 8, 2,
|8, 16, 8, 4,
|10, 16, 10, 4,
|8, 16, 8, 2|];
